c ren 1 -> 1
c ren 2 -> 2
c ren 3 -> 3
c ren 7 -> 4
c ren 8 -> 5
c ren 9 -> 6
c ren 14 -> 7
c ren 15 -> 8
c ren 16 -> 9
c ren 17 -> 10
c ren 20 -> 11
c ren 21 -> 12
c ren 28 -> 13
c ren 29 -> 14
c ren 33 -> 15
c ren 34 -> 16
c ren 38 -> 17
c ren 42 -> 18
c ren 45 -> 19
c ren 46 -> 20
c ren 48 -> 21
c ren 51 -> 22
c ren 52 -> 23
c ren 55 -> 24
c ren 56 -> 25
c ren 57 -> 26
c ren 60 -> 27
c ren 64 -> 28
c ren 70 -> 29
c ren 74 -> 30
p cnf 30 137
a 1 2 3 4 5 6 7 8 9 12 13 15 17 18 20 22 24 27 28 0
d 14 2 3 0
d 16 5 6 0
d 25 20 22 0
d 29 13 15 0
d 30 18 24 0
e 10 11 19 21 23 26 0
1 -2 -3 -4 5 -6 7 10 -11 0
-1 2 -3 -4 5 -6 -7 -10 -11 0
-1 2 -3 -4 -5 6 7 10 -11 0
-1 -2 3 -4 -5 6 -7 -10 -11 0
-1 -2 3 -4 5 -6 7 10 -11 0
-1 -2 3 -4 -5 6 7 10 -11 0
-1 2 -3 4 5 6 7 10 -11 0
-1 -2 3 4 -5 -6 -7 -10 -11 0
-1 2 -3 4 -5 -6 7 10 -11 0
4 5 -6 11 0
1 -2 3 11 0
-1 -2 3 4 -5 -6 7 10 -11 0
-1 2 -3 -4 5 -6 7 10 -11 0
-1 -2 3 4 5 6 -7 -10 -11 0
-1 2 -3 4 5 6 -7 -10 -11 0
-1 2 -3 4 -5 -6 -7 -10 -11 0
4 -5 6 11 0
-4 -5 -6 11 0
1 2 -3 11 0
-8 9 10 0
8 -9 10 0
-8 -9 -10 0
8 9 -10 0
-7 10 11 0
-1 -2 3 4 5 6 7 10 -11 0
1 -2 -3 -4 -5 6 7 10 -11 0
7 -10 11 0
-1 2 3 11 0
-4 5 6 11 0
-1 -2 3 -4 5 -6 -7 -10 -11 0
1 -2 -3 -4 -5 6 -7 -10 -11 0
1 2 10 11 12 -13 -14 -15 -16 17 18 -19 0
-1 -4 -10 11 -12 -13 -14 -15 -16 -17 -18 -19 0
2 4 -10 11 12 -13 -14 15 16 -17 -18 -19 0
2 22 23 0
1 3 -10 11 12 -13 -14 15 16 -17 -18 -19 0
-1 -4 -10 11 -12 -13 -14 15 16 -17 -18 -19 0
1 2 -10 11 12 13 14 -15 -16 -17 -18 -19 0
-2 -3 10 11 -12 -13 -14 15 16 17 18 -19 0
-1 -4 10 11 -12 13 14 -15 -16 17 18 -19 0
-1 -4 10 11 -12 -13 -14 15 16 17 18 -19 0
1 3 -10 11 12 -13 -14 -15 -16 -17 -18 -19 0
-1 -4 -10 11 -12 13 14 15 16 -17 -18 -19 0
1 2 3 4 5 6 -7 -10 -11 0
1 2 3 4 5 6 7 10 -11 0
-1 -4 -10 11 -12 13 14 -15 -16 -17 -18 -19 0
-1 -4 10 11 -12 13 14 15 16 17 18 -19 0
-2 -3 10 11 -12 -13 -14 -15 -16 17 18 -19 0
1 2 10 11 12 13 14 -15 -16 17 18 -19 0
1 2 3 4 -5 -6 -7 -10 -11 0
1 2 3 4 -5 -6 7 10 -11 0
1 2 -10 11 12 -13 -14 -15 -16 -17 -18 -19 0
1 2 -10 11 12 13 14 15 16 -17 -18 -19 0
3 22 23 0
-11 19 0
1 2 10 11 12 13 14 15 16 17 18 -19 0
-1 -4 10 11 -12 -13 -14 -15 -16 17 18 -19 0
1 3 10 11 12 -13 -14 -15 -16 17 18 -19 0
1 2 3 -4 5 -6 -7 -10 -11 0
1 2 3 -4 5 -6 7 10 -11 0
-2 -3 -10 11 -12 13 14 -15 -16 -17 -18 -19 0
-2 -3 10 11 -12 13 14 15 16 17 18 -19 0
1 2 3 -4 -5 6 -7 -10 -11 0
1 2 3 -4 -5 6 7 10 -11 0
-2 -3 10 11 -12 13 14 -15 -16 17 18 -19 0
-2 -3 -10 11 -12 13 14 15 16 -17 -18 -19 0
1 3 -10 11 12 13 14 -15 -16 -17 -18 -19 0
1 -2 -3 4 5 6 7 10 -11 0
-1 -2 -3 11 0
-2 -3 -10 11 -12 -13 -14 15 16 -17 -18 -19 0
1 3 10 11 12 -13 -14 15 16 17 18 -19 0
-14 -16 -20 21 0
1 3 10 11 12 13 14 -15 -16 17 18 -19 0
16 20 21 0
14 20 21 0
1 -2 -3 4 -5 -6 7 10 -11 0
1 -2 -3 4 5 6 -7 -10 -11 0
1 3 10 11 12 13 14 15 16 17 18 -19 0
-7 -12 -17 19 -21 -23 -25 -26 -27 -28 0
-2 -3 -10 11 -12 -13 -14 -15 -16 -17 -18 -19 0
1 2 10 11 12 -13 -14 15 16 17 18 -19 0
1 2 -10 11 12 -13 -14 15 16 -17 -18 -19 0
-2 -3 -22 23 0
-1 2 -3 -4 -5 6 -7 -10 -11 0
1 -2 -3 4 -5 -6 -7 -10 -11 0
2 4 10 11 12 -13 -14 -15 -16 17 18 -19 0
2 4 10 11 12 -13 -14 15 16 17 18 -19 0
-24 -25 26 0
24 25 26 0
1 -2 -3 -4 5 -6 -7 -10 -11 0
2 4 10 11 12 13 14 -15 -16 17 18 -19 0
2 4 -10 11 12 13 14 15 16 -17 -18 -19 0
7 12 -17 19 -21 -23 -25 -26 -27 -28 -30 0
7 -12 17 19 -21 -23 -25 -26 27 -28 30 0
-7 -17 19 -21 -23 -25 -26 -27 -28 30 0
3 4 -10 11 12 13 14 15 16 -17 -18 -19 0
3 4 10 11 12 13 14 15 16 17 18 -19 0
3 4 10 11 12 -13 -14 -15 -16 17 18 -19 0
2 4 10 11 12 13 14 15 16 17 18 -19 0
-12 -17 19 -21 -23 -25 -26 -27 -28 30 0
-1 4 -17 19 -21 -23 25 -26 -27 28 29 0
3 4 -10 11 12 -13 -14 -15 -16 -17 -18 -19 0
3 4 10 11 12 13 14 -15 -16 17 18 -19 0
3 4 -10 11 12 13 14 -15 -16 -17 -18 -19 0
3 4 -10 11 12 -13 -14 15 16 -17 -18 -19 0
2 4 -10 11 12 -13 -14 -15 -16 -17 -18 -19 0
-1 -4 -17 19 -21 -23 25 -26 -27 28 -29 0
1 -4 -17 19 -21 -23 25 -26 -27 28 29 0
-7 9 -12 17 19 -21 -23 -25 -26 27 -28 0
-7 -12 -17 19 -21 -23 25 -26 -27 28 0
-7 -17 19 -21 -23 25 -26 -27 28 30 0
1 4 -17 19 -21 -23 25 -26 -27 28 -29 0
-7 8 -12 17 19 -21 -23 -25 -26 27 -28 0
-12 -17 19 -21 -23 25 -26 -27 28 30 0
7 12 -17 19 -21 -23 25 -26 -27 28 -30 0
-7 12 17 19 -21 -23 -25 -26 27 -28 30 0
-1 4 17 19 -21 -23 -25 -26 27 -28 29 0
-7 -12 17 19 -21 -23 -25 -26 27 -28 -30 0
-1 -4 17 19 -21 -23 -25 -26 27 -28 -29 0
1 -4 17 19 -21 -23 -25 -26 27 -28 29 0
7 12 17 19 -21 -23 -25 -26 27 -28 -30 0
-1 4 -17 19 -21 -23 -25 -26 -27 -28 29 0
-1 -4 -17 19 -21 -23 -25 -26 -27 -28 -29 0
1 -4 -17 19 -21 -23 -25 -26 -27 -28 29 0
1 4 -17 19 -21 -23 -25 -26 -27 -28 -29 0
7 12 17 19 -21 -23 25 -26 27 28 -30 0
-12 17 19 -21 -23 25 -26 27 28 30 0
-7 -12 17 19 -21 -23 25 -26 27 28 0
1 -4 17 19 -21 -23 25 -26 27 28 29 0
-1 -4 17 19 -21 -23 25 -26 27 28 -29 0
-7 17 19 -21 -23 25 -26 27 28 30 0
1 3 -10 11 12 13 14 15 16 -17 -18 -19 0
1 4 17 19 -21 -23 25 -26 27 28 -29 0
-1 4 17 19 -21 -23 25 -26 27 28 29 0
1 4 17 19 -21 -23 -25 -26 27 -28 -29 0
2 4 -10 11 12 13 14 -15 -16 -17 -18 -19 0
3 4 10 11 12 -13 -14 15 16 17 18 -19 0
